acell 10.438847158060293 10.438847158060293 10.438847158060293 
rprim  0.0  0.5  0.5   # FCC primitive vectors (to be scaled by acell)
       0.5  0.0  0.5   
       0.5  0.5  0.0

ntypat 1          
znucl 20         

natom 1               # There is only one atom per cell
typat 1                # This atom is of type 1
xred 0.0  0.0  0.0    # This keyword indicate that the location of the atoms


ecut  25         # Maximal kinetic energy cut-off, in Hartree
prtgsr 1 #produce a GSR file include band structure,
#forces, stresses, electronic density
nstep 200          # Maximal number of SCF cycles
#diemac #metal
ndtset 2 #Gives the number of data sets to be treated.
###1 SCF
kptopt1 1          # Option for the automatic generation of k points, taking
                  # into account the symmetry
nshiftk1 4
shiftk1  0.5 0.5 0.5  # These shifts will be the same for all grids
        0.5 0.0 0.0
        0.0 0.5 0.0
        0.0 0.0 0.5
ngkpt1  4 4 4 
prtden1 1
toldfe1 1.0d-6


###2 band
iscf2 -2 #Controls the self-consistency algorithm.-2 for band
getden2 -1 # get charge density from previous dataset;-:previous

kptopt2 -10


ndivk2 20
kptbounds2 27 13 7 36 34 14 7 14 12 36
0.0 0.0 0.0 #Gamma
0.5 0.0 0.5 #X
0.5 0.25 0.75 #W
0.375 0.375 0.75 #K
0.0 0.0 0.0 #Gamma
0.5 0.5 0.5 #L
0.675 0.25 0.674 #U
0.5 0.25 0.75 #W
0.5 0.5 0.5 #L
0.375 0.375 0.75 #K
0.0 0.0 0.0 #Gamma

enunit2 1 # use eV as energy unit
tolwfr2 1.0d-10



##Input pseudopotential files
pp_dirpath "/mnt/e/WSL/compmatphy/workdir/abinit-psp/" #The path of pseudopotential files
pseudos "Ca.fhi" #The name of pseudopotential files for Ca
